id: 1330
name: sp97ar
group: miplib2010
method: 2

Gurobi 7.0.2 (linux64, Matlab) logging started Mon Mar 26 10:23:22 2018


Gurobi 7.0.2 (linux64) logging started Mon Mar 26 10:23:22 2018

Optimize a model with 1761 rows, 14101 columns and 290968 nonzeros
Coefficient statistics:
  Matrix range     [1e+00, 2e+01]
  Objective range  [1e+06, 9e+07]
  Bounds range     [1e+00, 1e+00]
  RHS range        [1e+00, 3e+01]
Presolve removed 69 rows and 1 columns
Presolve time: 0.05s
Presolved: 1692 rows, 14100 columns, 281317 nonzeros

Ordering time: 0.00s

Barrier statistics:
 AA' NZ     : 4.638e+04
 Factor NZ  : 7.114e+04 (roughly 7 MBytes of memory)
 Factor Ops : 6.524e+06 (less than 1 second per iteration)
 Threads    : 4

                  Objective                Residual
Iter       Primal          Dual         Primal    Dual     Compl     Time
   0   5.33222926e+11 -3.98022599e+08  3.40e+01 1.86e-09  2.39e+07     0s
   1   4.69161628e+10 -7.36742281e+09  2.69e+00 5.61e+06  2.55e+06     0s
   2   7.32055694e+09 -2.64904000e+09  2.95e-01 1.87e+06  4.82e+05     0s
   3   1.70257133e+09 -1.68739092e+08  1.74e-03 2.81e+05  7.82e+04     0s
   4   1.09657987e+09  2.46279119e+08  7.18e-04 9.16e+04  3.24e+04     0s
   5   9.02653884e+08  3.98833428e+08  3.58e-04 5.45e+04  1.89e+04     0s
   6   8.70503566e+08  5.14775072e+08  3.08e-04 3.20e+04  1.30e+04     0s
   7   7.97022152e+08  5.33967005e+08  1.87e-04 2.86e+04  9.76e+03     0s
   8   7.76106085e+08  5.97715502e+08  1.50e-04 1.49e+04  6.44e+03     0s
   9   7.29527335e+08  6.25687066e+08  8.59e-05 1.00e+04  3.76e+03     0s
  10   6.97683604e+08  6.36919538e+08  4.59e-05 6.23e+03  2.23e+03     0s
  11   6.85481436e+08  6.43126907e+08  3.27e-05 4.08e+03  1.55e+03     0s
  12   6.70487660e+08  6.47512801e+08  1.71e-05 2.31e+03  8.43e+02     0s
  13   6.62711474e+08  6.49819007e+08  9.43e-06 1.19e+03  4.70e+02     0s
  14   6.57150640e+08  6.51430777e+08  4.13e-06 4.64e+02  2.06e+02     0s
  15   6.55240226e+08  6.52078131e+08  2.37e-06 1.90e+02  1.11e+02     0s
  16   6.53151787e+08  6.52353909e+08  5.02e-07 7.49e+01  2.94e+01     0s
  17   6.52826450e+08  6.52488009e+08  2.19e-07 2.50e+01  1.22e+01     0s
  18   6.52608442e+08  6.52539626e+08  3.80e-08 8.30e+00  2.62e+00     0s
  19   6.52566463e+08  6.52557324e+08  4.37e-09 1.13e+00  3.54e-01     0s
  20   6.52560506e+08  6.52560180e+08  3.37e-11 6.98e-02  1.43e-02     0s
  21   6.52560395e+08  6.52560391e+08  1.53e-12 1.87e-05  1.39e-04     0s
  22   6.52560391e+08  6.52560391e+08  6.69e-09 2.98e-08  4.65e-06     0s
  23   6.52560392e+08  6.52560391e+08  2.23e-09 2.98e-08  1.37e-09     0s

Barrier solved model in 23 iterations and 0.25 seconds
Optimal objective 6.52560392e+08

Crossover log...

       0 DPushes remaining with DInf 3.4237746e-07                 0s

      29 PPushes remaining with PInf 0.0000000e+00                 0s
       0 PPushes remaining with PInf 0.0000000e+00                 0s

  Push phase complete: Pinf 0.0000000e+00, Dinf 2.0522566e-07      0s

Iteration    Objective       Primal Inf.    Dual Inf.      Time
     120    6.5256039e+08   0.000000e+00   0.000000e+00      0s
     120    6.5256039e+08   0.000000e+00   0.000000e+00      0s

Solved in 120 iterations and 0.28 seconds
Optimal objective  6.525603912e+08
status: OPTIMAL
